NAME : instances/clustered-mixed-tsp/instance-22.tsp
COMMENT : No Comment
TYPE : TSP
DIMENSION: 50
EDGE_WEIGHT_TYPE : EUC_2D
NODE_COORD_SECTION
1 338 -9 
2 667 154 
3 691 1168 
4 199 301 
5 982 655 
6 721 1003 
7 406 805 
8 187 268 
9 271 245 
10 444 419 
11 745 913 
12 462 320 
13 595 148 
14 1139 -34 
15 421 382 
16 622 337 
17 755 -87 
18 793 997 
19 840 662 
20 275 -37 
21 568 313 
22 797 -147 
23 1205 805 
24 665 143 
25 1078 -68 
26 568 874 
27 283 182 
28 330 898 
29 298 113 
30 629 91 
31 490 583 
32 740 -14 
33 646 604 
34 524 378 
35 -98 200 
36 -11 41 
37 929 5 
38 471 800 
39 1019 164 
40 995 326 
41 437 171 
42 477 644 
43 394 -61 
44 986 243 
45 899 -178 
46 322 550 
47 479 71 
48 262 491 
49 921 626 
50 896 -309 
EOF
